c read Graph
c width = 428
c time = 949 ms
c width = 29
c time = 1934 ms
c width = 27
c time = 6417 ms
c width = 26
c time = 10474 ms
c width = 25
c time = 16281 ms
c width = 24
c time = 24849 ms
c width = 23
c time = 42295 ms
c width = 22
c time = 64221 ms
c width = 21
c time = 80112 ms
c width = 21
c time = 80577 ms
s td 390 22 441
b 1 1 2 22
b 2 2 3 22 23
b 3 19 20 41 42
b 4 3 22 23 43
b 5 19 41 42 63
b 6 379 400 401 422
b 7 399 419 420 440
b 8 379 401 422 423
b 9 399 419 439 440
b 10 3 4 5 25
b 11 3 5 24 25 44 64
b 12 5 24 25 44 46 64 66
b 13 5 25 44 46 64 66 86
b 14 5 25 46 64 66 86 106
b 15 5 25 27 46 47 66 86 106
b 16 5 27 46 47 66 68 86 88 106
b 17 5 27 47 66 68 86 88 106 108
b 18 5 27 47 68 86 88 106 108 128
b 19 5 27 47 49 68 69 88 106 108 128
b 20 5 27 49 68 69 88 91 106 108 112 128 130 132 152
b 21 5 27 49 69 71 91 106 108 112 128 130 132 152
b 22 5 9 27 31 49 51 71 91 106 108 112 128 130 132 152
b 23 5 9 27 29 31 49 51 71
b 24 5 7 9 27 29 49
b 25 7 8 9 29
b 26 5 6 7 27
b 27 7 27 28 29 49
b 28 9 29 30 31 51
b 29 29 49 50 51 71
b 30 9 31 51 71 91 106 108 112 128 130 132 152 172 190 192 212
b 31 106 108 128 130 150 152 172 190 192 212
b 32 108 128 129 130 150
b 33 130 150 151 152 172
b 34 106 128 150 170 172 190 192 212
b 35 170 190 191 192 212
b 36 106 128 148 150 170 190
b 37 128 148 149 150 170
b 38 106 127 128 148
b 39 148 169 170 190
b 40 150 170 171 172 192
b 41 9 31 51 71 91 112 132 134 152 156 172 176 190 192 196 212 216 234 236 256
b 42 112 132 134 152 154 156 172 176 192 196 212 216 234 236 256
b 43 134 154 155 156 176
b 44 112 132 133 134 154
b 45 132 152 154 172 176 192 194 196 212 216 234 236 256
b 46 132 152 154 172 174 176 194 196 216
b 47 132 152 153 154 174
b 48 154 174 175 176 196
b 49 152 172 173 174 194
b 50 174 194 195 196 216
b 51 172 192 194 212 214 216 234 236 256
b 52 194 214 215 216 236
b 53 172 192 193 194 214
b 54 192 212 213 214 234
b 55 214 234 235 236 256
b 56 9 31 51 71 91 112 134 156 172 176 190 192 196 212 216 234 236 256
b 57 9 31 51 53 71 75 91 97 112 117 134 137 156 157 176 190 196 212 216 234 236 256
b 58 31 51 53 71 75 91 97 112 117 134 135 137 156 157
b 59 31 51 53 71 75 91 97 112 115 117 134 135 137 157
b 60 115 135 136 137 157
b 61 31 51 53 71 75 91 93 97 112 115 117 134 135 137
b 62 31 51 53 71 75 93 95 97 115 117 137
b 63 75 95 96 97 117
b 64 95 115 116 117 137
b 65 31 51 53 71 73 75 93 95 115
b 66 31 51 52 53 73
b 67 53 73 74 75 95
b 68 51 71 72 73 93
b 69 73 93 94 95 115
b 70 71 91 93 112 113 115 134 135
b 71 71 91 92 93 113
b 72 93 113 114 115 135
b 73 9 31 53 75 97 117 137 156 157 159 176 180 190 196 198 200 212 216 220 234 236 256
b 74 9 31 53 75 97 117 137 159 176 180 190 196 197 198 200 212 216 220 234 236 256
b 75 9 31 53 75 97 117 137 159 180 190 196 197 198 200 212 216 217 220 234 236 256
b 76 9 31 53 75 97 117 137 159 180 190 197 198 200 212 216 217 218 220 234 236 256
b 77 9 31 53 75 97 117 137 159 180 190 198 200 212 216 217 218 220 234 236 240 256
b 78 9 31 53 75 97 117 137 159 180 190 200 212 216 217 218 220 234 236 238 240 256
b 79 9 31 53 75 97 117 137 159 180 190 200 212 216 218 220 234 236 238 239 240 256
b 80 9 31 53 75 97 117 137 159 180 190 200 212 216 220 234 236 238 239 240 256 260
b 81 9 31 53 75 97 117 137 159 180 190 200 212 216 220 234 236 238 240 256 258 260
b 82 9 31 53 75 97 117 137 159 180 190 200 212 220 234 236 238 240 256 258 260 278
b 83 9 31 53 75 97 117 137 159 180 190 200 212 220 234 238 240 256 258 260 278 280
b 84 238 258 259 260 280
b 85 9 31 53 75 97 117 137 159 180 190 200 212 220 234 240 254 256 258 260 274 278 280
b 86 9 31 53 75 97 117 137 159 180 200 220 234 240 254 256 258 260 274 276 278 280
b 87 9 31 53 75 97 117 137 159 180 200 220 240 254 256 258 260 274 276 278 280 296 300
b 88 254 274 275 276 296
b 89 258 260 278 279 280 300
b 90 9 31 53 75 97 117 137 159 180 200 220 240 256 260 274 276 278 280 296 298 300
b 91 9 31 53 75 97 117 137 159 180 200 220 240 260 274 276 278 280 296 298 300 318
b 92 9 31 53 75 97 117 137 159 180 200 220 240 260 274 278 280 296 298 300 318 338 358
b 93 9 31 53 75 97 117 137 159 180 200 220 240 260 278 280 298 300 318 320 338 358
b 94 278 298 299 300 320
b 95 9 31 53 75 97 117 137 159 180 200 220 240 260 280 298 300 318 319 320 338 358
b 96 9 31 53 75 97 117 137 159 180 200 220 240 260 280 300 318 319 320 338 339 358
b 97 9 31 53 75 97 117 137 159 180 200 220 240 260 280 300 319 320 338 339 340 358
b 98 9 31 53 75 97 117 137 159 180 200 220 221 240 241 260 280 300 320 338 339 340 358
b 99 9 31 53 75 97 117 137 159 180 200 221 240 241 260 261 280 300 320 338 339 340 358
b 100 9 31 53 75 97 117 137 159 180 200 221 241 260 261 280 281 300 320 338 339 340 358
b 101 9 31 53 75 97 117 137 159 180 200 221 241 261 280 281 300 301 320 338 339 340 358
b 102 9 31 53 75 97 117 137 159 180 200 221 241 261 281 300 301 320 321 338 339 340 358
b 103 9 31 53 75 97 117 137 159 180 200 221 241 261 281 301 320 321 338 339 340 341 358
b 104 9 31 53 75 97 117 137 159 180 200 221 241 261 281 301 321 338 339 340 341 358 359
b 105 9 31 53 75 97 117 137 159 180 200 221 241 261 281 301 321 339 340 341 358 359 360
b 106 9 31 53 75 97 117 137 159 180 200 221 241 261 281 301 321 340 341 358 359 360 361
b 107 9 31 53 75 97 117 137 159 180 200 221 241 261 281 301 321 341 358 359 360 361 379
b 108 9 31 53 75 97 117 137 159 180 200 221 241 261 281 301 321 341 359 360 361 379 380
b 109 9 31 53 75 97 117 137 159 180 200 221 241 261 281 301 321 341 360 361 379 380 381
b 110 9 31 53 75 97 117 137 159 180 200 221 241 261 281 301 321 341 361 379 380 381 401
b 111 9 31 53 75 97 117 137 159 180 200 221 241 261 281 301 321 341 361 379 381 401 423
b 112 9 31 53 75 97 117 137 159 180 200 221 241 261 281 301 321 341 361 381 401 402 423
b 113 9 31 53 75 97 117 137 159 180 200 221 241 261 281 301 321 341 361 381 382 402 423
b 114 9 31 53 75 97 117 137 159 180 200 221 241 261 281 301 321 341 361 362 382 402 423
b 115 9 31 53 75 97 117 137 159 180 200 221 241 261 281 301 321 341 342 362 382 402 423
b 116 9 31 53 75 97 117 137 159 180 200 221 241 261 281 301 321 322 342 362 382 402 423
b 117 9 31 53 75 97 117 137 159 180 200 221 241 261 281 301 302 322 342 362 382 402 423
b 118 9 31 53 75 97 117 137 159 180 200 221 241 261 281 282 302 322 342 362 382 402 423
b 119 9 31 53 75 97 117 137 159 180 200 221 241 261 262 282 302 322 342 362 382 402 423
b 120 9 31 53 75 97 117 137 159 180 200 221 241 242 262 282 302 322 342 362 382 402 423
b 121 9 31 53 75 97 117 137 159 180 200 221 222 242 262 282 302 322 342 362 382 402 423
b 122 9 31 53 75 97 117 137 159 180 200 202 222 242 262 282 302 322 342 362 382 402 423
b 123 9 31 53 75 97 117 137 159 180 202 222 242 262 282 302 322 342 362 382 402 403 423
b 124 9 31 53 75 97 117 137 159 180 202 222 242 262 282 302 322 342 362 382 403 423 424
b 125 9 31 53 75 97 117 137 159 180 202 222 242 262 282 302 322 342 362 382 403 404 424
b 126 9 31 53 75 97 117 137 159 180 202 222 242 262 282 302 322 342 362 382 384 404 424
b 127 9 31 53 75 97 117 137 159 180 202 222 242 262 282 302 322 342 362 363 384 404 424
b 128 9 31 53 75 97 117 137 159 180 202 222 242 262 282 302 322 342 343 363 384 404 424
b 129 9 31 53 75 97 117 137 159 180 202 222 242 262 282 302 322 323 343 363 384 404 424
b 130 9 31 53 75 97 117 137 159 180 202 222 242 262 282 302 303 323 343 363 384 404 424
b 131 9 31 53 75 97 117 137 159 180 202 222 242 262 282 283 303 323 343 363 384 404 424
b 132 9 31 53 75 97 117 137 159 180 202 222 242 262 263 283 303 323 343 363 384 404 424
b 133 9 31 53 75 97 117 137 159 180 202 222 242 263 283 303 323 343 363 364 384 404 424
b 134 9 31 53 75 97 117 137 159 180 202 222 242 263 283 303 323 343 344 364 384 404 424
b 135 9 31 53 75 97 117 137 159 180 202 222 242 263 283 303 323 324 344 364 384 404 424
b 136 9 31 53 75 97 117 137 159 180 202 222 242 263 283 303 304 324 344 364 384 404 424
b 137 9 31 53 75 97 117 137 159 180 202 222 242 263 283 284 304 324 344 364 384 404 424
b 138 9 31 53 75 97 117 137 159 180 202 222 242 263 264 284 304 324 344 364 384 404 424
b 139 9 31 53 75 97 117 137 159 180 202 222 242 244 264 284 304 324 344 364 384 404 424
b 140 9 31 53 75 97 117 137 159 180 202 222 224 244 264 284 304 324 344 364 384 404 424
b 141 9 31 53 75 97 117 137 159 180 202 224 244 264 284 304 324 344 364 384 404 424 426
b 142 9 31 53 75 97 117 137 159 180 202 224 244 264 284 304 324 344 364 384 404 405 426
b 143 9 31 53 75 97 117 137 159 180 202 224 244 264 284 304 324 344 364 384 385 405 426
b 144 9 31 53 75 97 117 137 159 180 202 224 244 264 284 304 324 344 364 385 405 406 426
b 145 9 31 53 75 97 117 137 159 180 202 224 244 264 284 304 324 344 364 385 386 406 426
b 146 9 31 53 75 97 117 137 159 180 202 224 244 264 284 304 324 344 364 366 386 406 426
b 147 9 31 53 75 97 117 137 159 180 202 224 244 264 284 304 324 344 346 366 386 406 426
b 148 9 31 53 75 97 117 137 159 180 202 224 244 264 284 304 324 325 346 366 386 406 426
b 149 9 31 53 75 97 117 137 159 180 202 224 244 264 284 304 325 326 346 366 386 406 426
b 150 9 31 53 75 97 117 137 159 180 202 224 244 264 284 304 306 326 346 366 386 406 426
b 151 9 31 53 75 97 117 137 159 180 202 224 244 264 284 286 306 326 346 366 386 406 426
b 152 9 31 53 75 97 117 137 159 180 202 224 244 264 266 286 306 326 346 366 386 406 426
b 153 9 31 53 75 97 117 137 159 180 202 224 244 246 266 286 306 326 346 366 386 406 426
b 154 9 31 53 75 97 117 137 159 180 202 224 246 266 286 306 326 346 366 386 406 426 427
b 155 9 31 53 75 97 117 137 159 180 202 224 246 266 286 306 326 346 366 386 406 407 427
b 156 9 31 53 75 97 117 137 159 180 202 224 246 266 286 306 326 346 366 386 407 427 428
b 157 9 31 53 75 97 117 137 159 180 202 224 246 266 286 306 326 346 366 386 407 408 428
b 158 9 31 53 75 97 117 137 159 180 202 224 246 266 286 306 326 346 366 386 388 408 428
b 159 9 31 53 75 97 117 137 159 180 202 224 246 266 286 306 326 346 366 368 388 408 428
b 160 9 31 53 75 97 117 137 159 180 202 224 246 266 286 306 326 346 347 368 388 408 428
b 161 9 31 53 75 97 117 137 159 180 202 224 246 266 286 306 326 347 348 368 388 408 428
b 162 9 31 53 75 97 117 137 159 180 202 224 246 266 286 306 326 328 348 368 388 408 428
b 163 9 31 53 75 97 117 137 159 180 202 224 246 266 286 306 308 328 348 368 388 408 428
b 164 9 31 53 75 97 117 137 159 180 202 224 246 266 286 288 308 328 348 368 388 408 428
b 165 9 31 53 75 97 117 137 159 180 202 224 246 266 268 288 308 328 348 368 388 408 428
b 166 9 31 53 75 97 117 137 159 180 202 224 246 268 288 308 328 348 368 388 408 428 429
b 167 9 31 53 75 97 117 137 159 180 202 224 246 268 288 308 328 348 368 388 408 429 430
b 168 9 31 53 75 97 117 137 159 180 202 224 246 268 288 308 328 348 368 388 408 410 430
b 169 9 31 53 75 97 117 137 159 180 202 224 246 268 288 308 328 348 368 388 390 410 430
b 170 368 388 389 390 410
b 171 9 31 53 75 97 117 137 159 180 202 224 246 268 288 308 328 348 368 370 390 410 430
b 172 9 31 53 75 97 117 137 159 180 202 224 246 268 288 308 328 348 370 390 410 430 432
b 173 9 31 53 75 97 117 137 159 180 202 224 246 268 288 308 328 348 370 390 410 412 432
b 174 9 31 53 75 97 117 137 159 180 202 224 246 268 288 308 328 348 370 390 392 412 432
b 175 9 31 53 75 97 117 137 159 180 202 224 246 268 288 308 328 348 370 392 412 432 434
b 176 9 31 53 75 97 117 137 159 180 202 224 246 268 288 308 328 348 370 392 412 414 434
b 177 9 31 53 75 97 117 137 159 180 202 224 246 268 288 308 328 348 350 370 392 414 434
b 178 328 348 350 370 392 414 434
b 179 9 31 53 75 97 117 137 159 180 202 224 246 268 288 308 328 330 350 370 392 414 434
b 180 308 328 329 330 350
b 181 9 31 53 75 97 117 137 159 180 202 224 246 268 288 308 330 350 370 372 392 414 434
b 182 9 31 53 75 97 117 137 159 180 202 224 246 268 288 308 330 350 352 372 392 414 434
b 183 9 31 53 75 97 117 137 159 180 202 224 246 268 288 308 330 352 372 392 393 414 434
b 184 9 31 53 75 97 117 137 159 180 202 224 246 268 288 308 330 352 372 393 394 414 434
b 185 9 31 53 75 97 117 137 159 180 202 224 246 268 288 308 330 352 372 374 394 414 434
b 186 352 372 373 374 394
b 187 9 31 53 75 97 117 137 159 180 202 224 246 268 288 308 310 330 352 374 394 414 434
b 188 288 308 310 330 352 374 394 414 434
b 189 9 31 53 75 97 117 137 159 180 202 224 246 268 288 290 310 330 352 374 394 414 434
b 190 268 288 289 290 310
b 191 9 31 53 75 97 117 137 159 180 202 224 246 268 290 310 330 332 352 374 394 414 434
b 192 9 31 53 75 97 117 137 159 180 202 224 246 268 290 310 332 352 354 374 394 414 434
b 193 332 352 353 354 374
b 194 9 31 53 75 97 117 137 159 180 202 224 246 268 290 310 312 332 354 374 394 414 434
b 195 9 31 53 75 97 117 137 159 180 202 224 246 268 290 312 332 334 354 374 394 414 434
b 196 312 332 333 334 354
b 197 290 310 311 312 332
b 198 310 330 331 332 352
b 199 288 308 309 310 330
b 200 330 350 351 352 372
b 201 350 370 371 372 392
b 202 328 348 349 350 370
b 203 392 412 413 414 434
b 204 412 432 433 434
b 205 370 390 391 392 412
b 206 390 410 411 412 432
b 207 410 430 431 432
b 208 348 368 369 370 390
b 209 388 408 409 410 430
b 210 246 266 267 268 288
b 211 266 286 287 288 308
b 212 286 306 307 308 328
b 213 306 326 327 328 348
b 214 346 366 367 368 388
b 215 366 386 387 388 408
b 216 224 244 245 246 266
b 217 244 264 265 266 286
b 218 264 284 285 286 306
b 219 284 304 305 306 326
b 220 324 344 345 346 366
b 221 344 364 365 366 386
b 222 404 424 425 426
b 223 202 222 223 224 244
b 224 222 242 243 244 264
b 225 362 382 383 384 404
b 226 180 200 201 202 222
b 227 274 296 316 318 338 358
b 228 296 316 317 318 338
b 229 274 295 296 316
b 230 316 337 338 358
b 231 276 296 297 298 318
b 232 256 276 277 278 298
b 233 234 254 255 256 276
b 234 190 212 232 234 254 274
b 235 212 232 233 234 254
b 236 232 253 254 274
b 237 190 211 212 232
b 238 236 256 257 258 278
b 239 216 236 237 238 258
b 240 198 218 219 220 240
b 241 137 156 157 159 176 178 180 198 200 220
b 242 137 157 159 178 179 180 200
b 243 137 157 158 159 179
b 244 156 176 177 178 198
b 245 178 198 199 200 220
b 246 49 69 70 71 91
b 247 68 69 88 91 108 110 112 130 132 152
b 248 110 130 131 132 152
b 249 88 108 109 110 130
b 250 68 69 88 90 91 110 112 132
b 251 68 88 89 90 110
b 252 90 110 111 112 132
b 253 27 47 48 49 69
b 254 86 106 107 108 128
b 255 66 86 87 88 108
b 256 46 66 67 68 88
b 257 5 25 26 27 47
b 258 64 85 86 106
b 259 44 64 65 66 86
b 260 24 44 45 46 66
b 261 3 24 43 44 64
b 262 3 23 24 43 44
b 263 9 31 53 75 97 117 137 159 180 202 204 210 224 225 226 230 248 250 270
b 264 9 31 53 75 97 117 137 159 180 202 210 224 225 226 230 246 248 250 270
b 265 9 31 53 75 97 117 137 159 180 202 210 224 226 230 246 248 250 268 270
b 266 9 31 53 75 97 117 137 159 180 202 210 224 230 246 248 250 268 269 270
b 267 9 31 53 75 97 117 137 159 180 202 210 224 230 246 250 268 269 270 290
b 268 9 31 53 75 97 117 137 159 180 202 210 224 230 246 250 268 270 290 294 312 314 334
b 269 9 31 53 75 97 117 137 159 180 202 224 246 268 290 294 312 314 334 336
b 270 9 31 53 75 97 117 137 159 180 202 224 246 268 290 312 314 334 335 336
b 271 9 31 53 75 97 117 137 159 180 202 224 246 268 290 312 334 335 336 356
b 272 9 31 53 75 97 117 137 159 180 202 224 246 268 290 312 334 336 356 378
b 273 9 31 53 75 97 117 137 159 180 202 224 246 268 290 312 334 356 376 378 396 416 436
b 274 9 31 53 75 97 117 137 159 180 202 224 246 268 290 312 334 354 356 376 396 416 436
b 275 9 31 53 75 97 117 137 159 180 202 224 246 268 290 312 334 354 374 376 396 416 436
b 276 9 31 53 75 97 117 137 159 180 202 224 246 268 290 312 334 354 374 394 396 416 436
b 277 9 31 53 75 97 117 137 159 180 202 224 246 268 290 312 334 354 374 394 415 416 436
b 278 9 31 53 75 97 117 137 159 180 202 224 246 268 290 312 334 354 374 394 414 415 436
b 279 9 31 53 75 97 117 137 159 180 202 224 246 268 290 312 334 354 374 394 414 434 436
b 280 336 356 357 378
b 281 374 394 395 396 416
b 282 414 434 435 436
b 283 294 314 315 336
b 284 334 354 355 356 376
b 285 226 246 247 248 268
b 286 9 31 53 75 97 117 137 159 164 180 184 186 202 204 208 210 224 226 230 248 250 270
b 287 164 184 186 204 206 208 226 230 248 250 270
b 288 164 184 185 186 206
b 289 184 204 205 206 226
b 290 186 206 208 226 228 230 248 250 270
b 291 208 228 229 230 250
b 292 186 206 207 208 228
b 293 206 226 227 228 248
b 294 228 248 249 250 270
b 295 9 31 53 75 77 97 99 117 120 137 142 159 164 180 184 186 202 204 208 210 224 230
b 296 9 13 31 35 53 57 75 77 97 99 120 142 164 186 208 210 230
b 297 13 35 57 77 99 120 124 126 142 144 146 164 186 208 210 230
b 298 124 126 144 146 164 166 186 208 210 230
b 299 144 164 165 166 186
b 300 124 144 145 146 166
b 301 126 146 166 186 188 208 210 230
b 302 188 208 209 210 230
b 303 126 146 166 168 188 210
b 304 168 188 189 210
b 305 126 146 147 168
b 306 146 166 167 168 188
b 307 166 186 187 188 208
b 308 13 35 57 77 79 99 120 124 126 142 144 146 164
b 309 57 77 78 79 99
b 310 13 35 57 79 80 99 102 120 124 126 142 144 146 164
b 311 13 17 35 37 57 79 80 102 124 126 146
b 312 17 37 57 59 79 80 102 124 126 146
b 313 17 37 59 80 102 104 124 126 146
b 314 17 37 59 80 82 102 104 124 126
b 315 17 37 59 60 80 82 102 104 126
b 316 60 80 81 82 102
b 317 17 37 39 59 60 82 104 126
b 318 17 37 38 39 59
b 319 17 39 60 82 84 104 126
b 320 84 104 105 126
b 321 17 39 60 62 82 84 104
b 322 62 82 83 84 104
b 323 17 39 40 60 62 82 84
b 324 17 19 39 40 62 84
b 325 17 18 19 39
b 326 19 40 62 63 84
b 327 19 40 41 62 63
b 328 40 60 61 62 82
b 329 82 102 103 104 124
b 330 104 124 125 126 146
b 331 37 57 58 59 79
b 332 13 15 17 35 37 57
b 333 13 14 15 35
b 334 15 16 17 37
b 335 15 35 36 37 57
b 336 79 80 99 102 120 122 124 142 144 164
b 337 102 122 123 124 144
b 338 122 142 143 144 164
b 339 79 80 99 100 102 120 122 142
b 340 80 100 101 102 122
b 341 100 120 121 122 142
b 342 9 13 31 35 53 55 57 75 77 97
b 343 35 55 56 57 77
b 344 55 75 76 77 97
b 345 9 13 31 33 35 53 55 75
b 346 9 11 13 31 33 53
b 347 9 10 11 31
b 348 11 31 32 33 53
b 349 11 12 13 33
b 350 13 33 34 35 55
b 351 33 53 54 55 75
b 352 77 97 99 117 120 137 139 142 159 164 180 184 202 204 224
b 353 117 137 138 139 159
b 354 77 97 99 117 120 139 140 142 159 164 180 184 202 204 224
b 355 77 97 99 117 119 120 139 140
b 356 97 117 118 119 139
b 357 77 97 98 99 119
b 358 120 139 140 142 159 162 164 180 184 202 204 224
b 359 139 140 159 162 180 182 184 202 204 224
b 360 162 182 183 184 204
b 361 139 140 159 160 162 180 182 202
b 362 160 180 181 182 202
b 363 140 160 161 162 182
b 364 182 202 203 204 224
b 365 142 162 163 164 184
b 366 120 140 141 142 162
b 367 210 230 250 270 290 292 294 312 314 334
b 368 210 230 250 270 272 292 294 314
b 369 250 270 271 272 292
b 370 210 230 250 252 272 294
b 371 210 230 231 252
b 372 252 272 273 294
b 373 230 250 251 252 272
b 374 272 292 293 294 314
b 375 292 312 313 314 334
b 376 270 290 291 292 312
b 377 356 376 378 396 416 436 438
b 378 356 376 378 396 416 418 438
b 379 396 416 417 418 438
b 380 356 376 378 396 398 418 438
b 381 378 398 418 438 439
b 382 378 398 399 418 439
b 383 398 399 418 419 439
b 384 356 376 377 378 398
b 385 376 396 397 398 418
b 386 416 436 437 438
b 387 354 374 375 376 396
b 388 420 440 441
b 389 400 421 422
b 390 20 21 42
1 2
2 4
3 390
3 5
4 262
5 327
6 389
6 8
7 388
7 9
8 111
9 383
10 11
11 261
11 12
12 260
12 13
13 259
13 14
14 258
14 15
15 257
15 16
16 256
16 17
17 255
17 18
18 254
18 19
19 253
19 20
20 247
20 21
21 246
21 22
22 30
22 23
23 28
23 29
23 24
24 26
24 25
24 27
30 41
30 31
31 32
31 33
31 34
34 35
34 40
34 36
36 38
36 39
36 37
41 56
41 42
42 43
42 44
42 45
45 51
45 46
46 47
46 48
46 49
46 50
51 53
51 54
51 55
51 52
56 57
57 73
57 58
58 59
59 60
59 61
61 70
61 62
62 64
62 65
62 63
65 66
65 68
65 67
65 69
70 71
70 72
73 241
73 74
74 75
75 76
76 77
77 240
77 78
78 79
79 80
80 81
81 239
81 82
82 238
82 83
83 85
83 84
85 234
85 86
86 233
86 87
87 90
87 88
87 89
90 232
90 91
91 231
91 92
92 227
92 93
93 95
93 94
95 96
96 97
97 98
98 99
99 100
100 101
101 102
102 103
103 104
104 105
105 106
106 107
107 108
108 109
109 110
110 111
111 112
112 113
113 114
114 115
115 116
116 117
117 118
118 119
119 120
120 121
121 122
122 226
122 123
123 124
124 125
125 126
126 225
126 127
127 128
128 129
129 130
130 131
131 132
132 133
133 134
134 135
135 136
136 137
137 138
138 139
139 224
139 140
140 223
140 141
141 222
141 142
142 143
143 144
144 145
145 146
146 221
146 147
147 220
147 148
148 149
149 150
150 219
150 151
151 218
151 152
152 217
152 153
153 216
153 154
154 155
155 156
156 157
157 158
158 215
158 159
159 214
159 160
160 161
161 162
162 213
162 163
163 212
163 164
164 211
164 165
165 210
165 166
166 167
167 168
168 209
168 169
169 171
169 170
171 208
171 172
172 207
172 173
173 206
173 174
174 205
174 175
175 204
175 176
176 177
176 203
177 202
177 179
177 178
179 180
179 181
181 201
181 182
182 200
182 183
183 184
184 185
185 187
185 186
187 199
187 189
187 188
189 191
189 190
191 198
191 192
192 194
192 193
194 197
194 195
195 279
195 196
227 229
227 230
227 228
234 235
234 236
234 237
241 244
241 245
241 242
242 243
247 249
247 248
247 250
250 251
250 252
261 262
263 286
263 264
264 265
265 285
265 266
266 267
267 268
268 367
268 269
269 283
269 270
270 271
271 272
272 280
272 273
273 377
273 274
274 284
274 275
275 387
275 276
276 281
276 277
277 278
278 279
279 282
286 287
286 295
287 288
287 289
287 290
290 292
290 293
290 294
290 291
295 296
295 352
296 297
296 342
297 298
297 308
298 300
298 299
298 301
301 302
301 307
301 303
303 305
303 304
303 306
308 309
308 310
310 311
310 336
311 332
311 312
312 331
312 313
313 330
313 314
314 329
314 315
315 316
315 317
317 318
317 319
319 320
319 321
321 322
321 323
323 328
323 324
324 325
324 326
326 327
332 333
332 334
332 335
336 337
336 338
336 339
339 340
339 341
342 344
342 345
342 343
345 350
345 351
345 346
346 347
346 349
346 348
352 353
352 354
354 355
354 358
355 356
355 357
358 359
358 365
358 366
359 360
359 364
359 361
361 363
361 362
367 368
367 375
367 376
368 369
368 370
368 374
370 371
370 372
370 373
377 386
377 378
378 379
378 380
380 381
380 384
380 385
381 382
382 383
